#graphite_-0.7
atom 0.0000000000 0.0000000000 1.3825000000 C
atom 0.0000020829 1.4260563687 1.3825000000 C
atom 0.0000000000 0.0000000000 4.1475000000 C
atom 1.2350041937 0.7130299919 4.1475000000 C
#Lattice_vectors
lattice_vector 2.47 0 0
lattice_vector -1.235 2.13908 0
lattice_vector 0 0 5.53
