#graphite_15.0
atom 0.0000000000 0.0000000000 9.2325000000 C
atom 0.0000020829 1.4260563687 9.2325000000 C
atom 0.0000000000 0.0000000000 27.6975000000 C
atom 1.2350041937 0.7130299919 27.6975000000 C
#Lattice_vectors
lattice_vector 2.47 0 0
lattice_vector -1.235 2.13908 0
lattice_vector 0 0 36.93
