#graphite_1.5
atom 0.0000000000 0.0000000000 2.4825000000 C
atom 0.0000020829 1.4260563687 2.4825000000 C
atom 0.0000000000 0.0000000000 7.4475000000 C
atom 1.2350041937 0.7130299919 7.4475000000 C
#Lattice_vectors
lattice_vector 2.47 0 0
lattice_vector -1.235 2.13908 0
lattice_vector 0 0 9.93
